200
1000
266
264
263
262
261
258
258
254
253
252
251
250
250
250
247
246
245
243
242
241
239
236
235
234
232
231
230
228
226
225
225
225
223
221
220
217
216
215
214
214
211
210
209
208
207
206
205
202
202
202
201
200
200
199
199
198
197
197
196
196
194
190
188
188
187
184
183
183
182
182
181
180
179
179
179
176
176
176
175
174
174
173
172
171
170
170
169
169
168
166
165
162
162
162
160
160
159
158
156
155
154
154
153
152
152
151
151
149
149
148
147
147
143
143
142
142
141
135
134
131
130
126
124
124
123
121
120
120
117
115
114
111
109
109
107
106
105
104
103
103
103
97
94
94
92
88
83
83
81
78
77
76
76
74
74
73
71
70
65
64
63
62
62
61
60
59
56
54
54
51
51
51
50
48
45
43
42
42
42
40
40
39
37
32
31
30
29
29
28
27
25
25
24
22
22
21
21
19
18
17
